NAME : traveling-santa-2018-prime-paths.30037.tour
COMMENT : Length = 30037
COMMENT : Found by LKH [Keld Helsgaun] Sun Jun 12 19:59:58 2022
TYPE : TOUR
DIMENSION : 100
TOUR_SECTION
1
18
75
27
22
25
50
82
6
4
20
32
93
66
70
49
40
31
91
65
68
13
42
38
69
45
43
5
16
54
30
94
33
19
58
17
95
24
46
67
52
36
39
7
97
44
14
80
85
92
86
55
84
57
10
2
11
63
60
83
53
59
96
81
9
29
23
78
100
47
35
64
26
77
79
37
12
76
89
73
74
51
99
48
41
71
21
61
62
72
90
3
98
34
56
88
15
8
28
87
-1
EOF
